100
100
3000 3000 3000 3000 3000 3000 3000 3000 3000 3000 3000 3000 3000 3000 3000 3000 3000 3000 3000 3000 3000 3000 3000 3000 3000 3000 3000 3000 3000 3000 3000 3000 3000 3000 3000 3000 3000 3000 3000 3000 3000 3000 3000 3000 3000 3000 3000 3000 3000 3000 3000 3000 3000 3000 3000 3000 3000 3000 3000 3000 3000 3000 3000 3000 3000 3000 3000 3000 3000 3000 3000 3000 3000 3000 3000 3000 3000 3000 3000 3000 3000 3000 3000 3000 3000 3000 3000 3000 3000 3000 3000 3000 3000 3000 3000 3000 3000 3000 3000 3000
0 8 4
0 11 3
0 24 4
0 31 2
0 44 0
0 52 1
0 61 3
0 64 4
0 65 3
0 66 4
0 72 4
0 73 4
0 87 3
0 94 4
1 12 2
1 20 1
1 26 3
1 27 4
1 28 0
1 50 1
1 67 3
1 81 4
1 83 4
1 92 2
1 94 3
2 28 1
2 39 2
2 80 0
2 86 1
2 89 1
2 98 2
3 1 3
3 3 4
3 20 4
3 23 0
3 27 0
3 29 1
3 49 1
3 58 1
3 91 2
4 4 0
4 5 4
4 6 4
4 7 3
4 15 1
4 25 1
4 31 2
4 57 4
4 59 2
4 64 0
4 65 3
4 69 4
4 73 1
4 77 1
5 1 3
5 25 1
5 35 1
5 40 4
5 41 0
5 44 2
5 54 3
5 55 2
5 77 3
6 2 1
6 27 1
6 44 2
6 53 0
6 54 0
6 55 1
6 59 3
6 61 4
6 64 2
6 82 1
6 83 4
6 91 0
7 3 2
7 11 4
7 12 3
7 15 2
7 23 1
7 24 3
7 32 0
7 35 2
7 42 3
7 53 4
7 63 4
7 69 4
7 70 3
7 80 0
7 88 3
8 23 2
8 26 4
8 32 4
8 34 0
8 47 3
8 59 1
8 72 1
8 78 0
8 80 4
8 96 3
8 98 2
9 3 1
9 6 1
9 17 2
9 34 2
9 35 3
9 55 1
9 56 4
9 72 1
9 83 3
9 85 3
9 95 0
9 98 3
10 2 4
10 3 3
10 33 2
10 36 4
10 42 2
10 52 2
10 56 0
10 65 3
10 67 3
10 85 4
10 87 4
11 0 0
11 19 3
11 25 1
11 28 2
11 70 1
11 71 4
11 76 4
12 10 4
12 15 4
12 37 1
12 40 3
12 47 0
12 54 1
12 57 1
12 66 2
12 69 1
12 74 1
12 82 1
12 95 3
13 17 0
13 19 2
13 29 2
13 41 4
13 43 0
13 60 4
13 73 0
13 85 0
13 90 0
13 93 4
13 95 2
13 97 4
14 0 2
14 13 2
14 16 1
14 30 4
14 55 3
14 57 3
14 67 3
14 75 2
14 80 3
14 93 4
15 4 2
15 12 2
15 22 3
15 45 3
15 48 2
15 51 4
15 57 4
15 83 3
15 90 2
15 91 2
16 3 2
16 7 3
16 16 1
16 35 2
16 37 0
16 51 1
16 54 2
16 60 3
16 74 1
16 77 4
16 81 3
16 86 1
16 89 3
16 96 3
17 9 4
17 11 0
17 23 3
17 29 4
17 39 4
17 45 2
17 60 4
17 94 0
18 11 1
18 38 1
18 48 1
18 49 1
18 55 3
18 88 3
18 96 2
19 7 4
19 11 4
19 16 0
19 20 3
19 24 4
19 49 3
19 54 2
19 60 4
19 79 0
19 81 1
19 92 0
19 96 1
20 9 2
20 16 2
20 22 3
20 37 4
20 41 2
20 46 1
20 82 1
20 92 3
20 99 1
21 4 0
21 30 3
21 63 4
21 68 3
21 94 4
22 0 1
22 2 2
22 5 0
22 13 1
22 20 0
22 27 1
22 30 2
22 33 0
22 44 1
22 47 2
22 52 0
22 74 1
22 93 2
23 2 1
23 21 2
23 37 1
23 57 3
23 61 0
23 84 2
23 85 4
23 98 4
24 1 4
24 14 0
24 24 4
24 33 1
24 38 1
24 48 1
24 54 3
24 64 3
24 68 0
24 78 0
24 79 2
24 99 4
25 39 4
25 45 1
25 64 2
25 76 4
25 77 0
25 84 3
26 3 3
26 6 4
26 10 1
26 18 1
26 31 3
26 40 3
26 42 1
26 70 4
26 75 4
27 7 4
27 13 1
27 16 3
27 28 0
27 36 3
27 38 1
27 39 0
27 47 2
27 51 4
27 75 1
27 77 1
27 92 4
27 98 1
28 13 1
28 25 1
28 27 3
28 28 2
28 30 3
28 32 1
28 33 0
28 41 1
28 50 3
28 64 4
28 69 2
28 82 2
28 90 3
29 35 0
29 57 4
29 68 4
29 72 0
29 74 0
29 85 3
29 99 3
30 5 4
30 8 0
30 18 1
30 38 2
30 41 3
30 43 3
30 46 0
30 48 1
30 73 4
30 74 1
30 80 2
30 91 2
31 0 3
31 3 4
31 19 2
31 22 4
31 25 3
31 33 4
31 45 2
31 46 4
31 96 2
31 98 4
31 99 0
32 8 1
32 14 2
32 15 3
32 20 1
32 27 4
32 44 3
32 54 4
32 60 4
32 69 2
32 71 0
32 72 2
32 87 2
32 92 3
33 16 1
33 28 3
33 29 2
33 32 3
33 49 3
33 51 1
33 52 1
33 53 3
33 72 1
33 75 1
33 76 1
33 81 1
33 86 4
33 89 1
33 90 3
34 8 3
34 12 4
34 36 2
34 58 3
34 70 4
34 76 3
34 77 3
35 17 1
35 41 1
35 48 2
35 52 1
35 70 3
35 83 2
36 4 3
36 13 2
36 19 1
36 20 2
36 24 4
36 31 1
36 49 2
36 55 2
36 68 3
36 75 4
36 95 2
36 97 4
37 22 2
37 43 0
37 46 2
37 47 0
37 56 3
38 17 2
38 26 4
38 52 2
39 2 2
39 21 0
39 23 2
39 51 0
39 61 3
39 89 3
39 95 0
40 10 4
40 18 0
40 24 1
40 30 3
40 33 1
40 34 2
40 41 4
40 44 3
40 51 4
40 59 1
40 66 0
40 79 3
40 82 4
40 83 1
41 0 1
41 10 2
41 11 2
41 22 1
41 33 3
41 51 3
41 53 4
41 54 1
41 59 4
41 84 2
41 86 0
41 92 2
41 97 2
42 10 1
42 11 2
42 42 0
42 65 0
42 81 2
42 98 4
43 15 0
43 19 0
43 39 1
43 66 2
43 73 2
43 82 4
43 83 4
43 92 2
44 4 1
44 18 4
44 21 1
44 23 2
44 66 4
44 67 4
44 81 0
44 97 0
44 99 1
45 30 1
45 37 1
45 56 2
45 62 1
45 91 1
45 98 3
46 1 2
46 2 0
46 12 0
46 15 3
46 30 0
46 36 2
46 37 4
46 51 1
46 54 2
46 57 4
46 62 4
46 66 2
46 74 1
46 93 3
46 95 2
46 96 2
47 4 1
47 23 1
47 38 0
47 40 0
47 43 0
47 48 1
47 73 2
47 79 4
47 80 2
47 82 2
47 93 0
48 18 1
48 20 0
48 34 2
48 44 2
48 49 3
48 80 4
48 84 3
48 90 0
48 97 4
49 41 2
49 56 3
49 57 0
49 58 0
49 65 4
49 78 1
49 82 1
49 88 1
49 97 2
50 36 3
50 45 3
50 56 1
50 60 4
50 66 0
50 67 3
50 69 4
50 71 4
50 78 3
51 6 4
51 13 4
51 19 4
51 26 1
51 29 2
51 32 4
51 35 3
51 52 3
51 56 1
51 68 1
52 1 2
52 2 2
52 22 3
52 24 2
52 25 4
52 33 0
52 37 1
52 51 4
52 65 1
52 80 0
52 93 2
52 95 3
53 9 0
53 23 2
53 65 0
53 67 1
53 79 1
53 81 4
53 91 4
54 10 2
54 14 0
54 16 2
54 32 2
54 53 3
54 64 1
54 69 1
54 71 4
54 75 1
54 87 1
54 97 2
54 99 3
55 7 4
55 22 4
55 24 4
55 31 3
55 34 4
55 57 1
55 63 1
55 69 2
55 72 3
55 76 3
55 87 0
56 14 1
56 18 0
56 19 3
56 31 1
56 52 4
56 62 4
56 88 4
56 91 0
56 95 1
57 0 4
57 34 0
57 47 1
57 48 3
57 62 4
57 70 0
57 75 3
57 85 4
57 96 4
58 1 0
58 8 2
58 17 3
58 28 1
58 36 0
58 37 0
58 38 3
58 78 4
58 90 0
58 91 2
58 93 4
59 21 0
59 40 3
59 50 4
59 54 3
59 61 3
59 70 2
59 74 2
59 76 2
59 80 0
60 4 0
60 5 4
60 12 2
60 23 3
60 45 4
60 48 3
60 63 4
60 96 2
61 1 2
61 4 0
61 15 0
61 18 1
61 26 0
61 46 1
61 50 4
61 65 3
61 66 2
61 90 0
62 16 1
62 25 3
62 29 3
62 50 1
62 60 4
62 66 2
62 76 4
62 87 3
63 1 3
63 9 0
63 21 3
63 28 1
63 40 2
63 43 2
63 62 1
63 70 2
63 72 1
63 77 1
63 82 1
63 84 1
64 34 1
64 43 3
64 62 1
64 86 1
64 93 1
64 99 3
65 0 4
65 3 0
65 6 0
65 10 3
65 19 0
65 23 0
65 62 1
65 67 4
65 74 0
65 97 2
66 11 0
66 17 0
66 28 1
66 31 0
66 40 3
66 48 0
66 56 1
66 59 4
66 70 3
66 71 2
66 73 3
66 75 1
66 89 2
67 17 2
67 22 4
67 26 0
67 39 3
67 44 3
67 46 0
67 52 0
67 59 1
67 73 0
67 76 1
67 93 2
68 18 3
68 20 4
68 31 2
68 42 2
68 55 2
68 61 2
68 71 1
68 83 4
68 89 2
68 92 2
69 5 1
69 9 3
69 11 3
69 20 1
69 21 4
69 42 4
69 53 4
69 63 3
69 70 0
69 77 2
69 82 1
69 97 4
70 2 3
70 5 1
70 13 0
70 42 2
70 43 3
70 58 4
70 87 0
70 94 4
71 2 1
71 8 2
71 24 3
71 27 0
71 34 2
71 38 2
71 39 0
71 46 2
71 55 3
71 60 1
71 63 0
71 78 4
71 83 4
71 89 3
71 94 0
71 95 1
72 0 1
72 12 3
72 16 4
72 34 1
72 35 1
72 40 1
72 49 4
72 60 0
72 61 3
72 75 2
73 14 0
73 35 3
73 43 4
73 47 3
73 52 1
73 53 1
73 64 0
73 81 2
73 87 3
74 5 1
74 15 3
74 16 0
74 39 3
74 46 3
74 50 4
74 53 2
74 56 2
74 88 4
74 89 4
74 94 4
74 95 1
74 99 0
75 5 4
75 11 4
75 13 0
75 32 4
75 33 4
75 38 4
75 48 2
75 58 2
75 84 2
75 88 1
76 10 1
76 14 3
76 22 1
76 32 2
76 71 1
76 74 3
76 86 1
76 88 0
77 2 4
77 9 1
77 14 0
77 36 0
77 51 4
77 64 2
77 83 4
77 84 2
77 89 4
78 10 4
78 13 2
78 25 3
78 38 1
78 72 4
78 91 0
78 94 0
79 0 3
79 6 3
79 7 3
79 15 3
79 26 1
79 53 1
79 58 2
79 68 0
79 71 1
79 78 3
79 79 2
80 1 4
80 13 4
80 15 2
80 19 2
80 21 4
80 26 3
80 36 3
80 40 0
80 46 3
80 47 1
80 60 1
80 69 3
80 86 0
80 94 0
80 97 0
81 3 3
81 17 3
81 22 3
81 32 2
81 78 3
81 79 4
81 81 4
81 91 2
81 93 1
81 99 1
82 14 2
82 18 2
82 25 0
82 29 0
82 63 1
82 64 1
83 6 1
83 26 1
83 29 0
83 49 4
83 50 1
83 62 4
83 96 3
84 6 3
84 27 0
84 30 3
84 45 2
85 9 4
85 10 2
85 14 0
85 29 4
85 41 3
85 42 1
85 45 3
85 90 2
86 7 3
86 9 2
86 33 4
86 58 0
86 63 3
86 84 3
86 85 4
87 4 1
87 12 4
87 26 0
87 42 0
87 58 2
87 76 4
87 86 4
87 87 4
87 98 3
88 3 4
88 7 1
88 25 3
88 38 4
88 55 0
88 59 3
88 67 2
88 79 1
88 80 1
88 84 3
88 88 3
88 96 3
89 9 2
89 20 0
89 21 3
89 28 2
89 34 3
89 39 2
89 43 1
89 47 4
89 58 2
89 63 1
89 67 4
89 72 3
89 73 2
89 76 4
89 78 2
89 88 0
89 90 2
90 31 3
90 37 4
90 40 1
90 55 2
90 61 3
90 62 1
90 73 3
90 85 3
91 0 4
91 7 0
91 8 3
91 31 4
91 37 0
91 43 0
91 47 0
91 50 2
91 67 2
91 68 1
91 77 4
91 78 1
91 81 1
91 85 0
92 4 4
92 5 0
92 6 0
92 9 4
92 27 3
92 29 3
92 30 0
92 41 4
92 57 1
92 65 1
92 66 1
92 68 1
92 75 0
93 1 0
93 7 2
93 8 3
93 21 2
93 24 3
93 35 2
93 49 2
93 61 1
93 71 2
93 74 0
93 86 3
93 88 2
93 98 3
94 27 3
94 32 3
94 44 1
94 56 1
94 58 4
94 68 1
94 71 1
94 79 3
94 89 3
95 35 2
95 45 2
95 49 4
95 50 4
95 59 0
95 85 0
95 94 2
96 17 1
96 68 4
96 84 3
96 90 3
96 92 1
97 5 1
97 8 4
97 12 3
97 18 2
97 21 0
97 36 2
97 46 4
97 50 1
97 69 2
98 6 4
98 17 1
98 19 1
98 30 1
98 36 1
98 42 3
98 53 3
98 61 0
98 62 3
98 63 0
98 77 4
98 86 3
98 92 3
99 8 1
99 12 2
99 14 3
99 39 0
99 44 0
99 45 4
99 59 2
99 65 1
99 79 0
99 87 2
99 99 1
